p cnf 101 337
38 57 60 74 0
36 62 65 0
52 64 68 73 96 0
49 56 77 0
43 44 47 0
41 42 0
37 53 72 76 0
59 69 0
34 66 81 0
55 79 80 85 0
46 86 89 0
40 61 0
50 82 0
88 90 0
70 83 0
91 92 0
35 75 0
51 93 0
94 95 0
63 97 98 99 0
100 101 0
67 71 0
32 33 78 84 0
31 45 0
28 30 0
26 27 39 0
24 25 0
-55 -66 0
-23 -66 0
-23 -55 0
-82 -88 0
-22 -82 0
-22 -88 0
-21 -84 0
-21 -27 0
-27 -84 0
-66 -82 0
-21 -66 0
-21 -82 0
-55 -88 0
-55 -84 0
-84 -88 0
-22 -23 0
-23 -27 0
-22 -27 0
-62 -74 0
-47 -74 0
-72 -74 0
-47 -62 0
-62 -72 0
-47 -72 0
-59 -81 0
-19 -59 0
-40 -59 0
-19 -81 0
-40 -81 0
-19 -40 0
-20 -70 0
-18 -70 0
-35 -70 0
-18 -20 0
-20 -35 0
-18 -35 0
-16 -17 0
-17 -30 0
-17 -25 0
-16 -30 0
-16 -25 0
-25 -30 0
-59 -74 0
-70 -74 0
-17 -74 0
-59 -70 0
-17 -59 0
-17 -70 0
-62 -81 0
-20 -62 0
-16 -62 0
-20 -81 0
-16 -81 0
-16 -20 0
-19 -47 0
-18 -47 0
-30 -47 0
-18 -19 0
-19 -30 0
-18 -30 0
-40 -72 0
-35 -72 0
-25 -72 0
-35 -40 0
-25 -40 0
-25 -35 0
-65 -68 0
-65 -77 0
-44 -65 0
-42 -65 0
-68 -77 0
-44 -68 0
-42 -68 0
-44 -77 0
-42 -77 0
-42 -44 0
-34 -80 0
-34 -86 0
-14 -34 0
-13 -34 0
-80 -86 0
-14 -80 0
-13 -80 0
-14 -86 0
-13 -86 0
-13 -14 0
-15 -91 0
-12 -15 0
-15 -29 0
-11 -15 0
-12 -91 0
-29 -91 0
-11 -91 0
-12 -29 0
-11 -12 0
-11 -29 0
-94 -97 0
-48 -94 0
-94 -100 0
-67 -94 0
-48 -97 0
-97 -100 0
-67 -97 0
-48 -100 0
-48 -67 0
-67 -100 0
-10 -78 0
-10 -45 0
-10 -28 0
-10 -26 0
-45 -78 0
-28 -78 0
-26 -78 0
-28 -45 0
-26 -45 0
-26 -28 0
-34 -65 0
-15 -65 0
-65 -94 0
-10 -65 0
-15 -34 0
-34 -94 0
-10 -34 0
-15 -94 0
-10 -15 0
-10 -94 0
-68 -80 0
-68 -91 0
-68 -97 0
-68 -78 0
-80 -91 0
-80 -97 0
-78 -80 0
-91 -97 0
-78 -91 0
-78 -97 0
-77 -86 0
-12 -77 0
-48 -77 0
-45 -77 0
-12 -86 0
-48 -86 0
-45 -86 0
-12 -48 0
-12 -45 0
-45 -48 0
-14 -44 0
-29 -44 0
-44 -100 0
-28 -44 0
-14 -29 0
-14 -100 0
-14 -28 0
-29 -100 0
-28 -29 0
-28 -100 0
-13 -42 0
-11 -42 0
-42 -67 0
-26 -42 0
-11 -13 0
-13 -67 0
-13 -26 0
-11 -67 0
-11 -26 0
-26 -67 0
-38 -52 0
-38 -56 0
-52 -56 0
-69 -85 0
-69 -89 0
-85 -89 0
-9 -33 0
-9 -31 0
-31 -33 0
-38 -69 0
-9 -38 0
-9 -69 0
-52 -85 0
-33 -52 0
-33 -85 0
-56 -89 0
-31 -56 0
-31 -89 0
-43 -73 0
-98 -101 0
-73 -98 0
-43 -101 0
-49 -96 0
-53 -96 0
-49 -53 0
-46 -79 0
-61 -79 0
-46 -61 0
-8 -99 0
-7 -99 0
-7 -8 0
-79 -96 0
-96 -99 0
-79 -99 0
-46 -49 0
-8 -49 0
-8 -46 0
-53 -61 0
-7 -53 0
-7 -61 0
-36 -57 0
-57 -64 0
-41 -57 0
-37 -57 0
-36 -64 0
-36 -41 0
-36 -37 0
-41 -64 0
-37 -64 0
-37 -41 0
-6 -50 0
-6 -90 0
-5 -6 0
-4 -6 0
-50 -90 0
-5 -50 0
-4 -50 0
-5 -90 0
-4 -90 0
-4 -5 0
-54 -83 0
-83 -92 0
-3 -83 0
-75 -83 0
-54 -92 0
-3 -54 0
-54 -75 0
-3 -92 0
-75 -92 0
-3 -75 0
-93 -95 0
-63 -93 0
-71 -93 0
-58 -93 0
-63 -95 0
-71 -95 0
-58 -95 0
-63 -71 0
-58 -63 0
-58 -71 0
-2 -87 0
-2 -32 0
-2 -39 0
-2 -24 0
-32 -87 0
-39 -87 0
-24 -87 0
-32 -39 0
-24 -32 0
-24 -39 0
-6 -57 0
-57 -83 0
-57 -93 0
-2 -57 0
-6 -83 0
-6 -93 0
-2 -6 0
-83 -93 0
-2 -83 0
-2 -93 0
-36 -50 0
-36 -54 0
-36 -95 0
-36 -87 0
-50 -54 0
-50 -95 0
-50 -87 0
-54 -95 0
-54 -87 0
-87 -95 0
-64 -90 0
-64 -92 0
-63 -64 0
-32 -64 0
-90 -92 0
-63 -90 0
-32 -90 0
-63 -92 0
-32 -92 0
-32 -63 0
-5 -41 0
-3 -41 0
-41 -71 0
-39 -41 0
-3 -5 0
-5 -71 0
-5 -39 0
-3 -71 0
-3 -39 0
-39 -71 0
-4 -37 0
-37 -75 0
-37 -58 0
-24 -37 0
-4 -75 0
-4 -58 0
-4 -24 0
-58 -75 0
-24 -75 0
-24 -58 0
-60 -76 0
-1 -51 0
-51 -60 0
-1 -76 0
